(set-logic QF_S)
(declare-fun var0 () String)
(declare-fun var1 () Int)
(declare-fun var2 () Int)
(declare-fun var3 () String)
(declare-fun var4 () Bool)
(declare-fun var5 () Bool)
(declare-fun var6 () String)
(declare-fun var7 () String)
(assert (< (str.len (str.substr var0 var1 var2)) (str.to.int var3)))
(assert (not var4))
(assert (not var5))
(assert (< (str.len var6) (str.to.int var7)))
(check-sat)